\ This file has been generated by DOcplex
\ ENCODING=ISO-8859-1
\Problem name: random_problem.lp

Minimize
 obj: 452 x0 + 226 x1 + 113 x2 - 104 x3 - 52 x4 - 26 x5 + [ 3328 x0^2
      + 3328 x0*x1 + 1664 x0*x2 + 1792 x0*x3 + 896 x0*x4 + 448 x0*x5 + 832 x1^2
      + 832 x1*x2 + 896 x1*x3 + 448 x1*x4 + 224 x1*x5 + 208 x2^2 + 448 x2*x3
      + 224 x2*x4 + 112 x2*x5 + 1504 x3^2 + 1504 x3*x4 + 752 x3*x5 + 376 x4^2
      + 376 x4*x5 + 94 x5^2 ]/2
Subject To
 c0: 4 x0 + 2 x1 + x2 + 4 x3 + 2 x4 + x5 = 7

Bounds
 0 <= x0 <= 1
 0 <= x1 <= 1
 0 <= x2 <= 1
 0 <= x3 <= 1
 0 <= x4 <= 1
 0 <= x5 <= 1

Binaries
 x0 x1 x2 x3 x4 x5
End
